LAMMPS data file

400 atoms
390 bonds
760 angles
0 dihedrals
0 impropers

1 atom types
1 bond types
2 angle types

0.0 50.0 xlo xhi
0.0 50.0 ylo yhi
0.0 100.0 zlo zhi

Masses

1 1.0

Atoms

1 1 1 36.60493376266246 54.27240140553671 75.64919660978308 0 0 0
2 1 1 37.29186023637208 54.05330389756047 74.33385319389677 0 0 0
3 1 1 37.97878671008169 53.83420638958423 73.01850977801045 0 0 0
4 1 1 38.66571318379131 53.61510888160799 71.70316636212414 0 0 0
5 1 1 39.35263965750093 53.396011373631744 70.38782294623783 0 0 0
6 1 1 40.03956613121055 53.17691386565551 69.07247953035152 0 0 0
7 1 1 40.72649260492017 52.95781635767926 67.75713611446521 0 0 0
8 1 1 41.41341907862978 52.73871884970302 66.4417926985789 0 0 0
9 1 1 42.1003455523394 52.519621341726776 65.12644928269259 0 0 0
10 1 1 42.78727202604902 52.30052383375054 63.81110586680627 0 0 0
11 1 1 43.47419849975863 52.081426325774295 62.495762450919955 0 0 0
12 1 1 44.16112497346825 51.86232881779805 61.18041903503365 0 0 0
13 1 1 44.848051447177866 51.643231309821815 59.86507561914733 0 0 0
14 1 1 45.534977920887485 51.42413380184557 58.54973220326102 0 0 0
15 1 1 46.221904394597104 51.20503629386933 57.23438878737471 0 0 0
16 1 1 46.908830868306715 50.98593878589309 55.919045371488394 0 0 0
17 1 1 47.595757342016334 50.766841277916846 54.60370195560209 0 0 0
18 1 1 48.282683815725946 50.5477437699406 53.28835853971577 0 0 0
19 1 1 48.969610289435565 50.328646261964366 51.97301512382946 0 0 0
20 1 1 49.65653676314518 50.10954875398812 50.65767170794315 0 0 0
21 1 1 50.3434632368548 49.89045124601188 49.342328292056834 0 0 0
22 1 1 51.03038971056442 49.671353738035634 48.02698487617052 0 0 0
23 1 1 51.71731618427403 49.4522562300594 46.71164146028421 0 0 0
24 1 1 52.40424265798365 49.233158722083154 45.3962980443979 0 0 0
25 1 1 53.09116913169327 49.01406121410691 44.08095462851159 0 0 0
26 1 1 53.77809560540288 48.79496370613067 42.765611212625274 0 0 0
27 1 1 54.4650220791125 48.57586619815443 41.45026779673897 0 0 0
28 1 1 55.15194855282212 48.356768690178185 40.13492438085265 0 0 0
29 1 1 55.83887502653174 48.13767118220195 38.819580964966335 0 0 0
30 1 1 56.52580150024136 47.918573674225705 37.50423754908003 0 0 0
31 1 1 57.212727973950976 47.69947616624946 36.18889413319371 0 0 0
32 1 1 57.89965444766058 47.480378658273224 34.87355071730741 0 0 0
33 1 1 58.586580921370214 47.26128115029698 33.55820730142109 0 0 0
34 1 1 59.27350739507982 47.04218364232074 32.242863885534774 0 0 0
35 1 1 59.96043386878944 46.82308613434449 30.927520469648467 0 0 0
36 1 1 60.647360342499056 46.603988626368256 29.612177053762156 0 0 0
37 1 1 61.334286816208675 46.38489111839201 28.296833637875846 0 0 0
38 1 1 62.02121328991829 46.16579361041577 26.981490221989528 0 0 0
39 1 1 62.7081397636279 45.94669610243953 25.666146806103217 0 0 0
40 1 1 63.39506623733753 45.72759859446329 24.350803390216907 0 0 0
41 2 1 49.28706406764348 44.45041818525863 78.70986527376691 0 0 0
42 2 1 49.323624884687405 44.735012124476135 77.23756449049681 0 0 0
43 2 1 49.360185701731325 45.019606063693644 75.76526370722671 0 0 0
44 2 1 49.396746518775245 45.304200002911145 74.29296292395661 0 0 0
45 2 1 49.43330733581917 45.58879394212865 72.82066214068652 0 0 0
46 2 1 49.4698681528631 45.87338788134616 71.34836135741642 0 0 0
47 2 1 49.50642896990702 46.15798182056366 69.87606057414632 0 0 0
48 2 1 49.54298978695094 46.44257575978117 68.40375979087622 0 0 0
49 2 1 49.57955060399487 46.72716969899868 66.93145900760612 0 0 0
50 2 1 49.616111421038795 47.01176363821618 65.45915822433602 0 0 0
51 2 1 49.652672238082715 47.29635757743369 63.98685744106592 0 0 0
52 2 1 49.68923305512664 47.5809515166512 62.51455665779583 0 0 0
53 2 1 49.72579387217057 47.865545455868705 61.042255874525736 0 0 0
54 2 1 49.76235468921449 48.15013939508621 59.569955091255636 0 0 0
55 2 1 49.79891550625841 48.434733334303715 58.097654307985536 0 0 0
56 2 1 49.83547632330234 48.71932727352122 56.625353524715436 0 0 0
57 2 1 49.872037140346265 49.00392121273873 55.15305274144534 0 0 0
58 2 1 49.908597957390185 49.28851515195623 53.68075195817524 0 0 0
59 2 1 49.945158774434105 49.57310909117374 52.20845117490514 0 0 0
60 2 1 49.98171959147803 49.85770303039125 50.73615039163505 0 0 0
61 2 1 50.01828040852196 50.14229696960875 49.26384960836495 0 0 0
62 2 1 50.05484122556588 50.42689090882626 47.79154882509485 0 0 0
63 2 1 50.0914020426098 50.71148484804377 46.31924804182475 0 0 0
64 2 1 50.12796285965373 50.996078787261276 44.84694725855466 0 0 0
65 2 1 50.164523676697655 51.28067272647878 43.37464647528456 0 0 0
66 2 1 50.201084493741575 51.565266665696285 41.902345692014464 0 0 0
67 2 1 50.2376453107855 51.84986060491379 40.430044908744364 0 0 0
68 2 1 50.27420612782943 52.134454544131295 38.957744125474264 0 0 0
69 2 1 50.31076694487335 52.4190484833488 37.485443342204164 0 0 0
70 2 1 50.34732776191727 52.70364242256631 36.01314255893408 0 0 0
71 2 1 50.3838885789612 52.98823636178382 34.54084177566398 0 0 0
72 2 1 50.420449396005125 53.27283030100132 33.06854099239388 0 0 0
73 2 1 50.457010213049045 53.55742424021883 31.59624020912378 0 0 0
74 2 1 50.493571030092966 53.84201817943634 30.12393942585368 0 0 0
75 2 1 50.53013184713689 54.12661211865384 28.65163864258358 0 0 0
76 2 1 50.56669266418082 54.41120605787135 27.17933785931349 0 0 0
77 2 1 50.60325348122474 54.695799997088855 25.707037076043388 0 0 0
78 2 1 50.63981429826866 54.98039393630636 24.234736292773288 0 0 0
79 2 1 50.67637511531259 55.264987875523865 22.762435509503195 0 0 0
80 2 1 50.712935932356515 55.54958181474137 21.290134726233095 0 0 0
81 3 1 63.593017168197456 47.66695003353229 75.79436492955494 0 0 0
82 3 1 62.895939364700155 47.78659362155627 74.47157698444957 0 0 0
83 3 1 62.19886156120285 47.90623720958026 73.1487890393442 0 0 0
84 3 1 61.50178375770554 48.025880797604245 71.8260010942388 0 0 0
85 3 1 60.80470595420823 48.14552438562823 70.50321314913342 0 0 0
86 3 1 60.10762815071093 48.26516797365221 69.18042520402804 0 0 0
87 3 1 59.41055034721363 48.3848115616762 67.85763725892267 0 0 0
88 3 1 58.71347254371632 48.504455149700185 66.53484931381728 0 0 0
89 3 1 58.01639474021901 48.62409873772417 65.2120613687119 0 0 0
90 3 1 57.319316936721705 48.74374232574816 63.88927342360651 0 0 0
91 3 1 56.622239133224404 48.86338591377214 62.56648547850113 0 0 0
92 3 1 55.925161329727096 48.983029501796125 61.243697533395746 0 0 0
93 3 1 55.22808352622979 49.102673089820115 59.920909588290364 0 0 0
94 3 1 54.53100572273249 49.2223166778441 58.59812164318498 0 0 0
95 3 1 53.83392791923518 49.34196026586808 57.2753336980796 0 0 0
96 3 1 53.13685011573787 49.461603853892065 55.95254575297422 0 0 0
97 3 1 52.43977231224057 49.581247441916055 54.62975780786884 0 0 0
98 3 1 51.74269450874326 49.70089102994004 53.30696986276346 0 0 0
99 3 1 51.04561670524596 49.82053461796402 51.98418191765808 0 0 0
100 3 1 50.348538901748654 49.94017820598801 50.661393972552695 0 0 0
101 3 1 49.651461098251346 50.059821794011995 49.33860602744731 0 0 0
102 3 1 48.954383294754045 50.17946538203598 48.01581808234192 0 0 0
103 3 1 48.25730549125674 50.29910897005996 46.69303013723655 0 0 0
104 3 1 47.56022768775943 50.41875255808395 45.37024219213116 0 0 0
105 3 1 46.86314988426213 50.538396146107935 44.04745424702578 0 0 0
106 3 1 46.16607208076482 50.65803973413192 42.724666301920394 0 0 0
107 3 1 45.46899427726752 50.77768332215591 41.40187835681502 0 0 0
108 3 1 44.77191647377021 50.89732691017989 40.07909041170963 0 0 0
109 3 1 44.074838670272904 51.016970498203875 38.756302466604254 0 0 0
110 3 1 43.3777608667756 51.13661408622786 37.433514521498864 0 0 0
111 3 1 42.680683063278295 51.25625767425185 36.11072657639349 0 0 0
112 3 1 41.98360525978099 51.37590126227583 34.7879386312881 0 0 0
113 3 1 41.286527456283686 51.495544850299815 33.465150686182724 0 0 0
114 3 1 40.589449652786385 51.615188438323806 32.14236274107735 0 0 0
115 3 1 39.89237184928908 51.73483202634779 30.819574795971963 0 0 0
116 3 1 39.19529404579177 51.85447561437177 29.49678685086658 0 0 0
117 3 1 38.49821624229446 51.97411920239576 28.1739989057612 0 0 0
118 3 1 37.80113843879716 52.093762790419746 26.851210960655816 0 0 0
119 3 1 37.10406063529985 52.21340637844373 25.528423015550434 0 0 0
120 3 1 36.40698283180255 52.33304996646772 24.20563507044505 0 0 0
121 4 1 36.25780313141354 48.84247486425797 75.79485725459898 0 0 0
122 4 1 36.96253117595643 48.901835127629354 74.47204406205545 0 0 0
123 4 1 37.66725922049933 48.96119539100074 73.14923086951191 0 0 0
124 4 1 38.37198726504222 49.02055565437213 71.82641767696836 0 0 0
125 4 1 39.07671530958512 49.07991591774352 70.50360448442484 0 0 0
126 4 1 39.781443354128015 49.1392761811149 69.18079129188129 0 0 0
127 4 1 40.48617139867091 49.19863644448628 67.85797809933776 0 0 0
128 4 1 41.19089944321381 49.25799670785767 66.53516490679422 0 0 0
129 4 1 41.8956274877567 49.31735697122906 65.21235171425069 0 0 0
130 4 1 42.6003555322996 49.37671723460045 63.889538521707145 0 0 0
131 4 1 43.30508357684249 49.43607749797183 62.5667253291636 0 0 0
132 4 1 44.00981162138539 49.49543776134321 61.24391213662007 0 0 0
133 4 1 44.714539665928285 49.5547980247146 59.92109894407653 0 0 0
134 4 1 45.41926771047118 49.61415828808599 58.598285751533 0 0 0
135 4 1 46.12399575501408 49.67351855145738 57.275472558989456 0 0 0
136 4 1 46.82872379955697 49.73287881482876 55.95265936644592 0 0 0
137 4 1 47.53345184409987 49.79223907820014 54.62984617390238 0 0 0
138 4 1 48.23817988864276 49.85159934157153 53.307032981358844 0 0 0
139 4 1 48.942907933185666 49.91095960494292 51.98421978881531 0 0 0
140 4 1 49.647635977728555 49.970319868314306 50.66140659627177 0 0 0
141 4 1 50.352364022271445 50.02968013168569 49.33859340372823 0 0 0
142 4 1 51.05709206681435 50.08904039505707 48.01578021118469 0 0 0
143 4 1 51.76182011135724 50.14840065842846 46.692967018641156 0 0 0
144 4 1 52.46654815590014 50.207760921799846 45.37015382609762 0 0 0
145 4 1 53.17127620044303 50.267121185171234 44.047340633554086 0 0 0
146 4 1 53.876004244985936 50.326481448542616 42.72452744101054 0 0 0
147 4 1 54.580732289528825 50.385841711914 41.401714248467 0 0 0
148 4 1 55.285460334071715 50.445201975285386 40.07890105592347 0 0 0
149 4 1 55.99018837861462 50.504562238656774 38.756087863379925 0 0 0
150 4 1 56.69491642315751 50.56392250202816 37.43327467083639 0 0 0
151 4 1 57.39964446770041 50.623282765399544 36.110461478292855 0 0 0
152 4 1 58.1043725122433 50.682643028770926 34.78764828574931 0 0 0
153 4 1 58.809100556786206 50.742003292142314 33.46483509320578 0 0 0
154 4 1 59.513828601329095 50.8013635555137 32.142021900662236 0 0 0
155 4 1 60.218556645871985 50.86072381888509 30.8192087081187 0 0 0
156 4 1 60.92328469041489 50.92008408225647 29.496395515575166 0 0 0
157 4 1 61.62801273495778 50.979444345627854 28.173582323031624 0 0 0
158 4 1 62.33274077950068 51.03880460899924 26.85076913048809 0 0 0
159 4 1 63.03746882404357 51.09816487237063 25.527955937944547 0 0 0
160 4 1 63.742196868586475 51.15752513574202 24.205142745401012 0 0 0
161 5 1 71.25350996085115 42.51803982881382 68.65130253737752 0 0 0
162 5 1 70.16358637311518 42.90173009400286 67.69482548417866 0 0 0
163 5 1 69.07366278537924 43.28542035919189 66.73834843097981 0 0 0
164 5 1 67.98373919764327 43.66911062438093 65.78187137778097 0 0 0
165 5 1 66.89381560990732 44.052800889569966 64.82539432458212 0 0 0
166 5 1 65.80389202217137 44.436491154759 63.868917271383275 0 0 0
167 5 1 64.7139684344354 44.82018141994803 62.91244021818443 0 0 0
168 5 1 63.62404484669945 45.20387168513707 61.95596316498558 0 0 0
169 5 1 62.534121258963495 45.587561950326105 60.99948611178674 0 0 0
170 5 1 61.44419767122754 45.971252215515136 60.04300905858789 0 0 0
171 5 1 60.35427408349158 46.35494248070417 59.086532005389046 0 0 0
172 5 1 59.26435049575563 46.738632745893206 58.13005495219019 0 0 0
173 5 1 58.17442690801967 47.122323011082244 57.17357789899135 0 0 0
174 5 1 57.084503320283716 47.506013276271275 56.2171008457925 0 0 0
175 5 1 55.99457973254776 47.88970354146031 55.260623792593655 0 0 0
176 5 1 54.9046561448118 48.273393806649345 54.30414673939481 0 0 0
177 5 1 53.81473255707585 48.65708407183838 53.34766968619596 0 0 0
178 5 1 52.72480896933989 49.040774337027415 52.39119263299712 0 0 0
179 5 1 51.63488538160394 49.424464602216446 51.434715579798265 0 0 0
180 5 1 50.54496179386798 49.808154867405484 50.47823852659942 0 0 0
181 5 1 49.45503820613202 50.19184513259452 49.52176147340057 0 0 0
182 5 1 48.36511461839606 50.575535397783554 48.56528442020173 0 0 0
183 5 1 47.27519103066011 50.959225662972585 47.60880736700288 0 0 0
184 5 1 46.18526744292416 51.342915928161624 46.65233031380403 0 0 0
185 5 1 45.0953438551882 51.72660619335066 45.69585326060519 0 0 0
186 5 1 44.005420267452244 52.11029645853969 44.73937620740634 0 0 0
187 5 1 42.915496679716284 52.493986723728725 43.78289915420749 0 0 0
188 5 1 41.82557309198033 52.87767698891776 42.826422101008646 0 0 0
189 5 1 40.73564950424437 53.2613672541068 41.8699450478098 0 0 0
190 5 1 39.64572591650842 53.64505751929583 40.913467994610954 0 0 0
191 5 1 38.555802328772465 54.028747784484864 39.9569909414121 0 0 0
192 5 1 37.465878741036505 54.4124380496739 39.00051388821326 0 0 0
193 5 1 36.37595515330055 54.79612831486294 38.04403683501441 0 0 0
194 5 1 35.28603156556459 55.17981858005197 37.087559781815564 0 0 0
195 5 1 34.19610797782864 55.563508845241 36.13108272861672 0 0 0
196 5 1 33.10618439009268 55.94719911043004 35.17460567541787 0 0 0
197 5 1 32.016260802356726 56.33088937561908 34.21812862221903 0 0 0
198 5 1 30.926337214620766 56.71457964080811 33.26165156902018 0 0 0
199 5 1 29.836413626884813 57.09826990599714 32.30517451582133 0 0 0
200 5 1 28.74649003914886 57.48196017118618 31.348697462622482 0 0 0
201 6 1 64.27629436351363 44.96120234697405 24.972806041064686 0 0 0
202 6 1 63.54417670384626 45.2196022266164 26.256251885112654 0 0 0
203 6 1 62.812059044178895 45.47800210625876 27.539697729160615 0 0 0
204 6 1 62.07994138451153 45.73640198590112 28.823143573208583 0 0 0
205 6 1 61.34782372484416 45.99480186554348 30.10658941725655 0 0 0
206 6 1 60.615706065176795 46.253201745185834 31.39003526130452 0 0 0
207 6 1 59.88358840550943 46.51160162482819 32.67348110535248 0 0 0
208 6 1 59.15147074584207 46.77000150447054 33.95692694940045 0 0 0
209 6 1 58.4193530861747 47.028401384112904 35.240372793448415 0 0 0
210 6 1 57.687235426507335 47.28680126375526 36.523818637496376 0 0 0
211 6 1 56.95511776683997 47.54520114339762 37.807264481544344 0 0 0
212 6 1 56.22300010717261 47.803601023039974 39.09071032559231 0 0 0
213 6 1 55.49088244750524 48.06200090268233 40.37415616964027 0 0 0
214 6 1 54.758764787837876 48.32040078232468 41.65760201368824 0 0 0
215 6 1 54.02664712817051 48.578800661967044 42.94104785773621 0 0 0
216 6 1 53.29452946850314 48.8372005416094 44.22449370178417 0 0 0
217 6 1 52.562411808835776 49.09560042125176 45.507939545832144 0 0 0
218 6 1 51.83029414916841 49.354000300894114 46.791385389880105 0 0 0
219 6 1 51.09817648950105 49.61240018053647 48.07483123392808 0 0 0
220 6 1 50.36605882983368 49.87080006017883 49.35827707797604 0 0 0
221 6 1 49.63394117016632 50.129199939821184 50.641722922024 0 0 0
222 6 1 48.90182351049895 50.38759981946354 51.92516876607198 0 0 0
223 6 1 48.16970585083159 50.6459996991059 53.20861461011994 0 0 0
224 6 1 47.437588191164224 50.904399578748254 54.4920604541679 0 0 0
225 6 1 46.70547053149686 51.16279945839061 55.77550629821587 0 0 0
226 6 1 45.97335287182949 51.42119933803297 57.058952142263834 0 0 0
227 6 1 45.241235212162124 51.679599217675324 58.342397986311795 0 0 0
228 6 1 44.509117552494764 51.93799909731768 59.62584383035977 0 0 0
229 6 1 43.7769998928274 52.19639897696004 60.90928967440773 0 0 0
230 6 1 43.04488223316003 52.454798856602395 62.19273551845569 0 0 0
231 6 1 42.312764573492665 52.71319873624475 63.47618136250367 0 0 0
232 6 1 41.5806469138253 52.97159861588711 64.75962720655163 0 0 0
233 6 1 40.84852925415794 53.229998495529465 66.04307305059959 0 0 0
234 6 1 40.11641159449057 53.488398375171826 67.32651889464756 0 0 0
235 6 1 39.384293934823205 53.74679825481418 68.60996473869552 0 0 0
236 6 1 38.65217627515584 54.005198134456535 69.89341058274348 0 0 0
237 6 1 37.92005861548847 54.26359801409889 71.17685642679146 0 0 0
238 6 1 37.18794095582111 54.52199789374125 72.46030227083942 0 0 0
239 6 1 36.455823296153746 54.780397773383605 73.74374811488738 0 0 0
240 6 1 35.72370563648638 55.038797653025966 75.02719395893536 0 0 0
241 7 1 71.09442734222573 45.75483191234913 30.18671700572693 0 0 0
242 7 1 70.0126618374962 45.97253283992097 31.202782800305037 0 0 0
243 7 1 68.93089633276668 46.190233767492806 32.21884859488314 0 0 0
244 7 1 67.84913082803715 46.40793469506465 33.23491438946125 0 0 0
245 7 1 66.76736532330763 46.62563562263649 34.250980184039356 0 0 0
246 7 1 65.6855998185781 46.84333655020833 35.26704597861746 0 0 0
247 7 1 64.60383431384858 47.06103747778017 36.283111773195564 0 0 0
248 7 1 63.522068809119055 47.27873840535201 37.29917756777367 0 0 0
249 7 1 62.44030330438953 47.49643933292384 38.31524336235178 0 0 0
250 7 1 61.358537799660006 47.71414026049568 39.33130915692988 0 0 0
251 7 1 60.27677229493048 47.93184118806752 40.34737495150799 0 0 0
252 7 1 59.19500679020096 48.14954211563936 41.3634407460861 0 0 0
253 7 1 58.11324128547143 48.367243043211204 42.3795065406642 0 0 0
254 7 1 57.03147578074191 48.584943970783044 43.395572335242306 0 0 0
255 7 1 55.94971027601238 48.80264489835488 44.41163812982042 0 0 0
256 7 1 54.86794477128286 49.02034582592672 45.42770392439852 0 0 0
257 7 1 53.78617926655333 49.23804675349856 46.443769718976625 0 0 0
258 7 1 52.704413761823815 49.4557476810704 47.45983551355474 0 0 0
259 7 1 51.62264825709428 49.67344860864224 48.47590130813284 0 0 0
260 7 1 50.540882752364766 49.89114953621408 49.491967102710944 0 0 0
261 7 1 49.459117247635234 50.10885046378592 50.508032897289056 0 0 0
262 7 1 48.37735174290572 50.32655139135776 51.52409869186715 0 0 0
263 7 1 47.295586238176185 50.544252318929594 52.54016448644526 0 0 0
264 7 1 46.21382073344667 50.761953246501434 53.556230281023375 0 0 0
265 7 1 45.132055228717135 50.979654174073275 54.57229607560147 0 0 0
266 7 1 44.05028972398762 51.197355101645115 55.58836187017958 0 0 0
267 7 1 42.968524219258086 51.415056029216956 56.60442766475769 0 0 0
268 7 1 41.88675871452857 51.632756956788796 57.62049345933579 0 0 0
269 7 1 40.80499320979904 51.85045788436063 58.6365592539139 0 0 0
270 7 1 39.72322770506952 52.06815881193247 59.652625048492006 0 0 0
271 7 1 38.64146220033999 52.28585973950431 60.66869084307011 0 0 0
272 7 1 37.55969669561046 52.50356066707615 61.68475663764822 0 0 0
273 7 1 36.477931190880945 52.72126159464799 62.70082243222633 0 0 0
274 7 1 35.39616568615142 52.93896252221983 63.71688822680443 0 0 0
275 7 1 34.314400181421895 53.15666344979167 64.73295402138254 0 0 0
276 7 1 33.23263467669237 53.37436437736351 65.74901981596064 0 0 0
277 7 1 32.150869171962846 53.592065304935346 66.76508561053875 0 0 0
278 7 1 31.06910366723332 53.80976623250719 67.78115140511686 0 0 0
279 7 1 29.987338162503796 54.02746716007903 68.79721719969496 0 0 0
280 7 1 28.90557265777427 54.24516808765087 69.81328299427307 0 0 0
281 8 1 56.21863655904991 56.40049008043004 22.14457348959157 0 0 0
282 8 1 55.89973212012428 56.072259819895166 23.573056900381744 0 0 0
283 8 1 55.58082768119864 55.74402955936029 25.00154031117192 0 0 0
284 8 1 55.261923242273 55.41579929882542 26.430023721962094 0 0 0
285 8 1 54.943018803347364 55.08756903829054 27.858507132752273 0 0 0
286 8 1 54.62411436442173 54.759338777755666 29.286990543542444 0 0 0
287 8 1 54.305209925496094 54.43110851722079 30.715473954332623 0 0 0
288 8 1 53.98630548657046 54.10287825668592 32.1439573651228 0 0 0
289 8 1 53.667401047644816 53.774647996151046 33.57244077591297 0 0 0
290 8 1 53.34849660871918 53.44641773561617 35.00092418670315 0 0 0
291 8 1 53.029592169793546 53.1181874750813 36.429407597493324 0 0 0
292 8 1 52.71068773086791 52.789957214546426 37.8578910082835 0 0 0
293 8 1 52.391783291942275 52.46172695401155 39.28637441907368 0 0 0
294 8 1 52.07287885301663 52.13349669347668 40.71485782986385 0 0 0
295 8 1 51.753974414091 51.805266432941806 42.143341240654024 0 0 0
296 8 1 51.43506997516536 51.47703617240693 43.5718246514442 0 0 0
297 8 1 51.11616553623973 51.14880591187206 45.00030806223438 0 0 0
298 8 1 50.79726109731409 50.82057565133719 46.42879147302456 0 0 0
299 8 1 50.47835665838845 50.49234539080231 47.85727488381473 0 0 0
300 8 1 50.159452219462814 50.16411513026743 49.2857582946049 0 0 0
301 8 1 49.84054778053718 49.83588486973257 50.71424170539508 0 0 0
302 8 1 49.521643341611544 49.50765460919769 52.14272511618526 0 0 0
303 8 1 49.20273890268591 49.17942434866281 53.57120852697543 0 0 0
304 8 1 48.883834463760266 48.85119408812794 54.999691937765604 0 0 0
305 8 1 48.56493002483463 48.52296382759307 56.42817534855578 0 0 0
306 8 1 48.246025585908995 48.194733567058194 57.85665875934596 0 0 0
307 8 1 47.92712114698336 47.86650330652332 59.28514217013614 0 0 0
308 8 1 47.608216708057725 47.53827304598845 60.71362558092632 0 0 0
309 8 1 47.28931226913208 47.210042785453574 62.14210899171648 0 0 0
310 8 1 46.97040783020645 46.8818125249187 63.57059240250666 0 0 0
311 8 1 46.65150339128081 46.55358226438383 64.99907581329684 0 0 0
312 8 1 46.33259895235518 46.225352003848954 66.42755922408702 0 0 0
313 8 1 46.01369451342954 45.89712174331408 67.85604263487718 0 0 0
314 8 1 45.6947900745039 45.56889148277921 69.28452604566736 0 0 0
315 8 1 45.375885635578264 45.240661222244334 70.71300945645754 0 0 0
316 8 1 45.05698119665263 44.912430961709454 72.14149286724772 0 0 0
317 8 1 44.738076757726986 44.58420070117458 73.5699762780379 0 0 0
318 8 1 44.41917231880136 44.25597044063971 74.99845968882806 0 0 0
319 8 1 44.100267879875716 43.927740180104834 76.42694309961824 0 0 0
320 8 1 43.78136344095008 43.59950991956996 77.85542651040842 0 0 0
321 9 1 28.240038767364418 67.18409355176182 40.6847696776465 0 0 0
322 9 1 29.35593421519188 66.3028579850048 41.16247379674155 0 0 0
323 9 1 30.47182966301935 65.42162241824778 41.6401779158366 0 0 0
324 9 1 31.58772511084682 64.54038685149077 42.11788203493166 0 0 0
325 9 1 32.70362055867428 63.65915128473375 42.59558615402671 0 0 0
326 9 1 33.81951600650174 62.77791571797673 43.07329027312176 0 0 0
327 9 1 34.93541145432921 61.89668015121972 43.550994392216815 0 0 0
328 9 1 36.05130690215668 61.0154445844627 44.028698511311866 0 0 0
329 9 1 37.167202349984144 60.134209017705686 44.506402630406924 0 0 0
330 9 1 38.28309779781161 59.25297345094867 44.984106749501976 0 0 0
331 9 1 39.398993245639076 58.37173788419165 45.46181086859703 0 0 0
332 9 1 40.514888693466546 57.49050231743463 45.93951498769208 0 0 0
333 9 1 41.63078414129401 56.60926675067762 46.41721910678713 0 0 0
334 9 1 42.74667958912147 55.728031183920606 46.89492322588218 0 0 0
335 9 1 43.86257503694894 54.846795617163586 47.37262734497723 0 0 0
336 9 1 44.97847048477641 53.96556005040657 47.85033146407228 0 0 0
337 9 1 46.09436593260387 53.08432448364955 48.328035583167335 0 0 0
338 9 1 47.210261380431334 52.20308891689254 48.805739702262386 0 0 0
339 9 1 48.3261568282588 51.32185335013553 49.28344382135744 0 0 0
340 9 1 49.44205227608627 50.44061778337851 49.76114794045249 0 0 0
341 9 1 50.55794772391374 49.559382216621486 50.23885205954755 0 0 0
342 9 1 51.6738431717412 48.67814664986447 50.7165561786426 0 0 0
343 9 1 52.789738619568666 47.79691108310746 51.19426029773765 0 0 0
344 9 1 53.905634067396136 46.91567551635045 51.6719644168327 0 0 0
345 9 1 55.02152951522359 46.03443994959343 52.14966853592775 0 0 0
346 9 1 56.13742496305106 45.15320438283641 52.6273726550228 0 0 0
347 9 1 57.25332041087853 44.271968816079394 53.105076774117855 0 0 0
348 9 1 58.369215858706 43.39073324932238 53.58278089321291 0 0 0
349 9 1 59.48511130653347 42.50949768256536 54.060485012307964 0 0 0
350 9 1 60.601006754360924 41.62826211580835 54.538189131403016 0 0 0
351 9 1 61.71690220218839 40.74702654905133 55.01589325049807 0 0 0
352 9 1 62.83279765001586 39.865790982294314 55.49359736959312 0 0 0
353 9 1 63.94869309784332 38.9845554155373 55.97130148868817 0 0 0
354 9 1 65.0645885456708 38.10331984878028 56.44900560778322 0 0 0
355 9 1 66.18048399349826 37.22208428202327 56.92670972687827 0 0 0
356 9 1 67.29637944132573 36.34084871526625 57.40441384597332 0 0 0
357 9 1 68.4122748891532 35.459613148509234 57.882117965068375 0 0 0
358 9 1 69.52817033698065 34.57837758175222 58.359822084163426 0 0 0
359 9 1 70.64406578480812 33.6971420149952 58.83752620325848 0 0 0
360 9 1 71.75996123263559 32.81590644823819 59.315230322353536 0 0 0
361 10 1 57.433437111768555 45.127944885739346 22.133001746348988 0 0 0
362 10 1 57.05223520860093 45.37779386595784 23.562078579869556 0 0 0
363 10 1 56.67103330543332 45.627642846176336 24.991155413390118 0 0 0
364 10 1 56.289831402265705 45.87749182639483 26.420232246910686 0 0 0
365 10 1 55.90862949909808 46.127340806613326 27.849309080431247 0 0 0
366 10 1 55.52742759593046 46.37718978683182 29.278385913951816 0 0 0
367 10 1 55.14622569276285 46.627038767050315 30.707462747472377 0 0 0
368 10 1 54.765023789595226 46.87688774726881 32.136539580992945 0 0 0
369 10 1 54.38382188642761 47.126736727487305 33.56561641451351 0 0 0
370 10 1 54.00261998325999 47.3765857077058 34.994693248034075 0 0 0
371 10 1 53.62141808009237 47.626434687924295 36.423770081554636 0 0 0
372 10 1 53.240216176924754 47.87628366814279 37.852846915075204 0 0 0
373 10 1 52.85901427375714 48.126132648361285 39.281923748595766 0 0 0
374 10 1 52.47781237058952 48.37598162857978 40.711000582116334 0 0 0
375 10 1 52.0966104674219 48.625830608798275 42.140077415636895 0 0 0
376 10 1 51.71540856425428 48.87567958901677 43.569154249157464 0 0 0
377 10 1 51.33420666108667 49.125528569235264 44.998231082678025 0 0 0
378 10 1 50.95300475791905 49.37537754945376 46.42730791619859 0 0 0
379 10 1 50.571802854751425 49.625226529672254 47.856384749719155 0 0 0
380 10 1 50.19060095158381 49.87507550989075 49.28546158323972 0 0 0
381 10 1 49.809399048416196 50.124924490109244 50.714538416760284 0 0 0
382 10 1 49.428197145248575 50.37477347032774 52.14361525028085 0 0 0
383 10 1 49.04699524208095 50.624622450546234 53.572692083801414 0 0 0
384 10 1 48.66579333891334 50.87447143076473 55.00176891732198 0 0 0
385 10 1 48.28459143574572 51.12432041098322 56.43084575084254 0 0 0
386 10 1 47.9033895325781 51.37416939120172 57.85992258436311 0 0 0
387 10 1 47.52218762941048 51.62401837142021 59.28899941788367 0 0 0
388 10 1 47.14098572624287 51.87386735163871 60.71807625140424 0 0 0
389 10 1 46.759783823075246 52.1237163318572 62.1471530849248 0 0 0
390 10 1 46.37858191990763 52.3735653120757 63.57622991844537 0 0 0
391 10 1 45.99738001674001 52.62341429229419 65.00530675196593 0 0 0
392 10 1 45.61617811357239 52.87326327251269 66.4343835854865 0 0 0
393 10 1 45.234976210404774 53.12311225273118 67.86346041900705 0 0 0
394 10 1 44.85377430723716 53.37296123294968 69.29253725252764 0 0 0
395 10 1 44.47257240406954 53.62281021316817 70.72161408604819 0 0 0
396 10 1 44.09137050090192 53.87265919338667 72.15069091956876 0 0 0
397 10 1 43.7101685977343 54.12250817360516 73.57976775308933 0 0 0
398 10 1 43.32896669456668 54.37235715382366 75.00884458660988 0 0 0
399 10 1 42.94776479139907 54.62220613404215 76.43792142013046 0 0 0
400 10 1 42.566562888231445 54.87205511426065 77.86699825365102 0 0 0

Bonds

1 1 1 2
2 1 2 3
3 1 3 4
4 1 4 5
5 1 5 6
6 1 6 7
7 1 7 8
8 1 8 9
9 1 9 10
10 1 10 11
11 1 11 12
12 1 12 13
13 1 13 14
14 1 14 15
15 1 15 16
16 1 16 17
17 1 17 18
18 1 18 19
19 1 19 20
20 1 20 21
21 1 21 22
22 1 22 23
23 1 23 24
24 1 24 25
25 1 25 26
26 1 26 27
27 1 27 28
28 1 28 29
29 1 29 30
30 1 30 31
31 1 31 32
32 1 32 33
33 1 33 34
34 1 34 35
35 1 35 36
36 1 36 37
37 1 37 38
38 1 38 39
39 1 39 40
40 1 41 42
41 1 42 43
42 1 43 44
43 1 44 45
44 1 45 46
45 1 46 47
46 1 47 48
47 1 48 49
48 1 49 50
49 1 50 51
50 1 51 52
51 1 52 53
52 1 53 54
53 1 54 55
54 1 55 56
55 1 56 57
56 1 57 58
57 1 58 59
58 1 59 60
59 1 60 61
60 1 61 62
61 1 62 63
62 1 63 64
63 1 64 65
64 1 65 66
65 1 66 67
66 1 67 68
67 1 68 69
68 1 69 70
69 1 70 71
70 1 71 72
71 1 72 73
72 1 73 74
73 1 74 75
74 1 75 76
75 1 76 77
76 1 77 78
77 1 78 79
78 1 79 80
79 1 81 82
80 1 82 83
81 1 83 84
82 1 84 85
83 1 85 86
84 1 86 87
85 1 87 88
86 1 88 89
87 1 89 90
88 1 90 91
89 1 91 92
90 1 92 93
91 1 93 94
92 1 94 95
93 1 95 96
94 1 96 97
95 1 97 98
96 1 98 99
97 1 99 100
98 1 100 101
99 1 101 102
100 1 102 103
101 1 103 104
102 1 104 105
103 1 105 106
104 1 106 107
105 1 107 108
106 1 108 109
107 1 109 110
108 1 110 111
109 1 111 112
110 1 112 113
111 1 113 114
112 1 114 115
113 1 115 116
114 1 116 117
115 1 117 118
116 1 118 119
117 1 119 120
118 1 121 122
119 1 122 123
120 1 123 124
121 1 124 125
122 1 125 126
123 1 126 127
124 1 127 128
125 1 128 129
126 1 129 130
127 1 130 131
128 1 131 132
129 1 132 133
130 1 133 134
131 1 134 135
132 1 135 136
133 1 136 137
134 1 137 138
135 1 138 139
136 1 139 140
137 1 140 141
138 1 141 142
139 1 142 143
140 1 143 144
141 1 144 145
142 1 145 146
143 1 146 147
144 1 147 148
145 1 148 149
146 1 149 150
147 1 150 151
148 1 151 152
149 1 152 153
150 1 153 154
151 1 154 155
152 1 155 156
153 1 156 157
154 1 157 158
155 1 158 159
156 1 159 160
157 1 161 162
158 1 162 163
159 1 163 164
160 1 164 165
161 1 165 166
162 1 166 167
163 1 167 168
164 1 168 169
165 1 169 170
166 1 170 171
167 1 171 172
168 1 172 173
169 1 173 174
170 1 174 175
171 1 175 176
172 1 176 177
173 1 177 178
174 1 178 179
175 1 179 180
176 1 180 181
177 1 181 182
178 1 182 183
179 1 183 184
180 1 184 185
181 1 185 186
182 1 186 187
183 1 187 188
184 1 188 189
185 1 189 190
186 1 190 191
187 1 191 192
188 1 192 193
189 1 193 194
190 1 194 195
191 1 195 196
192 1 196 197
193 1 197 198
194 1 198 199
195 1 199 200
196 1 201 202
197 1 202 203
198 1 203 204
199 1 204 205
200 1 205 206
201 1 206 207
202 1 207 208
203 1 208 209
204 1 209 210
205 1 210 211
206 1 211 212
207 1 212 213
208 1 213 214
209 1 214 215
210 1 215 216
211 1 216 217
212 1 217 218
213 1 218 219
214 1 219 220
215 1 220 221
216 1 221 222
217 1 222 223
218 1 223 224
219 1 224 225
220 1 225 226
221 1 226 227
222 1 227 228
223 1 228 229
224 1 229 230
225 1 230 231
226 1 231 232
227 1 232 233
228 1 233 234
229 1 234 235
230 1 235 236
231 1 236 237
232 1 237 238
233 1 238 239
234 1 239 240
235 1 241 242
236 1 242 243
237 1 243 244
238 1 244 245
239 1 245 246
240 1 246 247
241 1 247 248
242 1 248 249
243 1 249 250
244 1 250 251
245 1 251 252
246 1 252 253
247 1 253 254
248 1 254 255
249 1 255 256
250 1 256 257
251 1 257 258
252 1 258 259
253 1 259 260
254 1 260 261
255 1 261 262
256 1 262 263
257 1 263 264
258 1 264 265
259 1 265 266
260 1 266 267
261 1 267 268
262 1 268 269
263 1 269 270
264 1 270 271
265 1 271 272
266 1 272 273
267 1 273 274
268 1 274 275
269 1 275 276
270 1 276 277
271 1 277 278
272 1 278 279
273 1 279 280
274 1 281 282
275 1 282 283
276 1 283 284
277 1 284 285
278 1 285 286
279 1 286 287
280 1 287 288
281 1 288 289
282 1 289 290
283 1 290 291
284 1 291 292
285 1 292 293
286 1 293 294
287 1 294 295
288 1 295 296
289 1 296 297
290 1 297 298
291 1 298 299
292 1 299 300
293 1 300 301
294 1 301 302
295 1 302 303
296 1 303 304
297 1 304 305
298 1 305 306
299 1 306 307
300 1 307 308
301 1 308 309
302 1 309 310
303 1 310 311
304 1 311 312
305 1 312 313
306 1 313 314
307 1 314 315
308 1 315 316
309 1 316 317
310 1 317 318
311 1 318 319
312 1 319 320
313 1 321 322
314 1 322 323
315 1 323 324
316 1 324 325
317 1 325 326
318 1 326 327
319 1 327 328
320 1 328 329
321 1 329 330
322 1 330 331
323 1 331 332
324 1 332 333
325 1 333 334
326 1 334 335
327 1 335 336
328 1 336 337
329 1 337 338
330 1 338 339
331 1 339 340
332 1 340 341
333 1 341 342
334 1 342 343
335 1 343 344
336 1 344 345
337 1 345 346
338 1 346 347
339 1 347 348
340 1 348 349
341 1 349 350
342 1 350 351
343 1 351 352
344 1 352 353
345 1 353 354
346 1 354 355
347 1 355 356
348 1 356 357
349 1 357 358
350 1 358 359
351 1 359 360
352 1 361 362
353 1 362 363
354 1 363 364
355 1 364 365
356 1 365 366
357 1 366 367
358 1 367 368
359 1 368 369
360 1 369 370
361 1 370 371
362 1 371 372
363 1 372 373
364 1 373 374
365 1 374 375
366 1 375 376
367 1 376 377
368 1 377 378
369 1 378 379
370 1 379 380
371 1 380 381
372 1 381 382
373 1 382 383
374 1 383 384
375 1 384 385
376 1 385 386
377 1 386 387
378 1 387 388
379 1 388 389
380 1 389 390
381 1 390 391
382 1 391 392
383 1 392 393
384 1 393 394
385 1 394 395
386 1 395 396
387 1 396 397
388 1 397 398
389 1 398 399
390 1 399 400

Angles

1 1 1 2 3
2 2 1 2 3
3 1 2 3 4
4 2 2 3 4
5 1 3 4 5
6 2 3 4 5
7 1 4 5 6
8 2 4 5 6
9 1 5 6 7
10 2 5 6 7
11 1 6 7 8
12 2 6 7 8
13 1 7 8 9
14 2 7 8 9
15 1 8 9 10
16 2 8 9 10
17 1 9 10 11
18 2 9 10 11
19 1 10 11 12
20 2 10 11 12
21 1 11 12 13
22 2 11 12 13
23 1 12 13 14
24 2 12 13 14
25 1 13 14 15
26 2 13 14 15
27 1 14 15 16
28 2 14 15 16
29 1 15 16 17
30 2 15 16 17
31 1 16 17 18
32 2 16 17 18
33 1 17 18 19
34 2 17 18 19
35 1 18 19 20
36 2 18 19 20
37 1 19 20 21
38 2 19 20 21
39 1 20 21 22
40 2 20 21 22
41 1 21 22 23
42 2 21 22 23
43 1 22 23 24
44 2 22 23 24
45 1 23 24 25
46 2 23 24 25
47 1 24 25 26
48 2 24 25 26
49 1 25 26 27
50 2 25 26 27
51 1 26 27 28
52 2 26 27 28
53 1 27 28 29
54 2 27 28 29
55 1 28 29 30
56 2 28 29 30
57 1 29 30 31
58 2 29 30 31
59 1 30 31 32
60 2 30 31 32
61 1 31 32 33
62 2 31 32 33
63 1 32 33 34
64 2 32 33 34
65 1 33 34 35
66 2 33 34 35
67 1 34 35 36
68 2 34 35 36
69 1 35 36 37
70 2 35 36 37
71 1 36 37 38
72 2 36 37 38
73 1 37 38 39
74 2 37 38 39
75 1 38 39 40
76 2 38 39 40
77 1 41 42 43
78 2 41 42 43
79 1 42 43 44
80 2 42 43 44
81 1 43 44 45
82 2 43 44 45
83 1 44 45 46
84 2 44 45 46
85 1 45 46 47
86 2 45 46 47
87 1 46 47 48
88 2 46 47 48
89 1 47 48 49
90 2 47 48 49
91 1 48 49 50
92 2 48 49 50
93 1 49 50 51
94 2 49 50 51
95 1 50 51 52
96 2 50 51 52
97 1 51 52 53
98 2 51 52 53
99 1 52 53 54
100 2 52 53 54
101 1 53 54 55
102 2 53 54 55
103 1 54 55 56
104 2 54 55 56
105 1 55 56 57
106 2 55 56 57
107 1 56 57 58
108 2 56 57 58
109 1 57 58 59
110 2 57 58 59
111 1 58 59 60
112 2 58 59 60
113 1 59 60 61
114 2 59 60 61
115 1 60 61 62
116 2 60 61 62
117 1 61 62 63
118 2 61 62 63
119 1 62 63 64
120 2 62 63 64
121 1 63 64 65
122 2 63 64 65
123 1 64 65 66
124 2 64 65 66
125 1 65 66 67
126 2 65 66 67
127 1 66 67 68
128 2 66 67 68
129 1 67 68 69
130 2 67 68 69
131 1 68 69 70
132 2 68 69 70
133 1 69 70 71
134 2 69 70 71
135 1 70 71 72
136 2 70 71 72
137 1 71 72 73
138 2 71 72 73
139 1 72 73 74
140 2 72 73 74
141 1 73 74 75
142 2 73 74 75
143 1 74 75 76
144 2 74 75 76
145 1 75 76 77
146 2 75 76 77
147 1 76 77 78
148 2 76 77 78
149 1 77 78 79
150 2 77 78 79
151 1 78 79 80
152 2 78 79 80
153 1 81 82 83
154 2 81 82 83
155 1 82 83 84
156 2 82 83 84
157 1 83 84 85
158 2 83 84 85
159 1 84 85 86
160 2 84 85 86
161 1 85 86 87
162 2 85 86 87
163 1 86 87 88
164 2 86 87 88
165 1 87 88 89
166 2 87 88 89
167 1 88 89 90
168 2 88 89 90
169 1 89 90 91
170 2 89 90 91
171 1 90 91 92
172 2 90 91 92
173 1 91 92 93
174 2 91 92 93
175 1 92 93 94
176 2 92 93 94
177 1 93 94 95
178 2 93 94 95
179 1 94 95 96
180 2 94 95 96
181 1 95 96 97
182 2 95 96 97
183 1 96 97 98
184 2 96 97 98
185 1 97 98 99
186 2 97 98 99
187 1 98 99 100
188 2 98 99 100
189 1 99 100 101
190 2 99 100 101
191 1 100 101 102
192 2 100 101 102
193 1 101 102 103
194 2 101 102 103
195 1 102 103 104
196 2 102 103 104
197 1 103 104 105
198 2 103 104 105
199 1 104 105 106
200 2 104 105 106
201 1 105 106 107
202 2 105 106 107
203 1 106 107 108
204 2 106 107 108
205 1 107 108 109
206 2 107 108 109
207 1 108 109 110
208 2 108 109 110
209 1 109 110 111
210 2 109 110 111
211 1 110 111 112
212 2 110 111 112
213 1 111 112 113
214 2 111 112 113
215 1 112 113 114
216 2 112 113 114
217 1 113 114 115
218 2 113 114 115
219 1 114 115 116
220 2 114 115 116
221 1 115 116 117
222 2 115 116 117
223 1 116 117 118
224 2 116 117 118
225 1 117 118 119
226 2 117 118 119
227 1 118 119 120
228 2 118 119 120
229 1 121 122 123
230 2 121 122 123
231 1 122 123 124
232 2 122 123 124
233 1 123 124 125
234 2 123 124 125
235 1 124 125 126
236 2 124 125 126
237 1 125 126 127
238 2 125 126 127
239 1 126 127 128
240 2 126 127 128
241 1 127 128 129
242 2 127 128 129
243 1 128 129 130
244 2 128 129 130
245 1 129 130 131
246 2 129 130 131
247 1 130 131 132
248 2 130 131 132
249 1 131 132 133
250 2 131 132 133
251 1 132 133 134
252 2 132 133 134
253 1 133 134 135
254 2 133 134 135
255 1 134 135 136
256 2 134 135 136
257 1 135 136 137
258 2 135 136 137
259 1 136 137 138
260 2 136 137 138
261 1 137 138 139
262 2 137 138 139
263 1 138 139 140
264 2 138 139 140
265 1 139 140 141
266 2 139 140 141
267 1 140 141 142
268 2 140 141 142
269 1 141 142 143
270 2 141 142 143
271 1 142 143 144
272 2 142 143 144
273 1 143 144 145
274 2 143 144 145
275 1 144 145 146
276 2 144 145 146
277 1 145 146 147
278 2 145 146 147
279 1 146 147 148
280 2 146 147 148
281 1 147 148 149
282 2 147 148 149
283 1 148 149 150
284 2 148 149 150
285 1 149 150 151
286 2 149 150 151
287 1 150 151 152
288 2 150 151 152
289 1 151 152 153
290 2 151 152 153
291 1 152 153 154
292 2 152 153 154
293 1 153 154 155
294 2 153 154 155
295 1 154 155 156
296 2 154 155 156
297 1 155 156 157
298 2 155 156 157
299 1 156 157 158
300 2 156 157 158
301 1 157 158 159
302 2 157 158 159
303 1 158 159 160
304 2 158 159 160
305 1 161 162 163
306 2 161 162 163
307 1 162 163 164
308 2 162 163 164
309 1 163 164 165
310 2 163 164 165
311 1 164 165 166
312 2 164 165 166
313 1 165 166 167
314 2 165 166 167
315 1 166 167 168
316 2 166 167 168
317 1 167 168 169
318 2 167 168 169
319 1 168 169 170
320 2 168 169 170
321 1 169 170 171
322 2 169 170 171
323 1 170 171 172
324 2 170 171 172
325 1 171 172 173
326 2 171 172 173
327 1 172 173 174
328 2 172 173 174
329 1 173 174 175
330 2 173 174 175
331 1 174 175 176
332 2 174 175 176
333 1 175 176 177
334 2 175 176 177
335 1 176 177 178
336 2 176 177 178
337 1 177 178 179
338 2 177 178 179
339 1 178 179 180
340 2 178 179 180
341 1 179 180 181
342 2 179 180 181
343 1 180 181 182
344 2 180 181 182
345 1 181 182 183
346 2 181 182 183
347 1 182 183 184
348 2 182 183 184
349 1 183 184 185
350 2 183 184 185
351 1 184 185 186
352 2 184 185 186
353 1 185 186 187
354 2 185 186 187
355 1 186 187 188
356 2 186 187 188
357 1 187 188 189
358 2 187 188 189
359 1 188 189 190
360 2 188 189 190
361 1 189 190 191
362 2 189 190 191
363 1 190 191 192
364 2 190 191 192
365 1 191 192 193
366 2 191 192 193
367 1 192 193 194
368 2 192 193 194
369 1 193 194 195
370 2 193 194 195
371 1 194 195 196
372 2 194 195 196
373 1 195 196 197
374 2 195 196 197
375 1 196 197 198
376 2 196 197 198
377 1 197 198 199
378 2 197 198 199
379 1 198 199 200
380 2 198 199 200
381 1 201 202 203
382 2 201 202 203
383 1 202 203 204
384 2 202 203 204
385 1 203 204 205
386 2 203 204 205
387 1 204 205 206
388 2 204 205 206
389 1 205 206 207
390 2 205 206 207
391 1 206 207 208
392 2 206 207 208
393 1 207 208 209
394 2 207 208 209
395 1 208 209 210
396 2 208 209 210
397 1 209 210 211
398 2 209 210 211
399 1 210 211 212
400 2 210 211 212
401 1 211 212 213
402 2 211 212 213
403 1 212 213 214
404 2 212 213 214
405 1 213 214 215
406 2 213 214 215
407 1 214 215 216
408 2 214 215 216
409 1 215 216 217
410 2 215 216 217
411 1 216 217 218
412 2 216 217 218
413 1 217 218 219
414 2 217 218 219
415 1 218 219 220
416 2 218 219 220
417 1 219 220 221
418 2 219 220 221
419 1 220 221 222
420 2 220 221 222
421 1 221 222 223
422 2 221 222 223
423 1 222 223 224
424 2 222 223 224
425 1 223 224 225
426 2 223 224 225
427 1 224 225 226
428 2 224 225 226
429 1 225 226 227
430 2 225 226 227
431 1 226 227 228
432 2 226 227 228
433 1 227 228 229
434 2 227 228 229
435 1 228 229 230
436 2 228 229 230
437 1 229 230 231
438 2 229 230 231
439 1 230 231 232
440 2 230 231 232
441 1 231 232 233
442 2 231 232 233
443 1 232 233 234
444 2 232 233 234
445 1 233 234 235
446 2 233 234 235
447 1 234 235 236
448 2 234 235 236
449 1 235 236 237
450 2 235 236 237
451 1 236 237 238
452 2 236 237 238
453 1 237 238 239
454 2 237 238 239
455 1 238 239 240
456 2 238 239 240
457 1 241 242 243
458 2 241 242 243
459 1 242 243 244
460 2 242 243 244
461 1 243 244 245
462 2 243 244 245
463 1 244 245 246
464 2 244 245 246
465 1 245 246 247
466 2 245 246 247
467 1 246 247 248
468 2 246 247 248
469 1 247 248 249
470 2 247 248 249
471 1 248 249 250
472 2 248 249 250
473 1 249 250 251
474 2 249 250 251
475 1 250 251 252
476 2 250 251 252
477 1 251 252 253
478 2 251 252 253
479 1 252 253 254
480 2 252 253 254
481 1 253 254 255
482 2 253 254 255
483 1 254 255 256
484 2 254 255 256
485 1 255 256 257
486 2 255 256 257
487 1 256 257 258
488 2 256 257 258
489 1 257 258 259
490 2 257 258 259
491 1 258 259 260
492 2 258 259 260
493 1 259 260 261
494 2 259 260 261
495 1 260 261 262
496 2 260 261 262
497 1 261 262 263
498 2 261 262 263
499 1 262 263 264
500 2 262 263 264
501 1 263 264 265
502 2 263 264 265
503 1 264 265 266
504 2 264 265 266
505 1 265 266 267
506 2 265 266 267
507 1 266 267 268
508 2 266 267 268
509 1 267 268 269
510 2 267 268 269
511 1 268 269 270
512 2 268 269 270
513 1 269 270 271
514 2 269 270 271
515 1 270 271 272
516 2 270 271 272
517 1 271 272 273
518 2 271 272 273
519 1 272 273 274
520 2 272 273 274
521 1 273 274 275
522 2 273 274 275
523 1 274 275 276
524 2 274 275 276
525 1 275 276 277
526 2 275 276 277
527 1 276 277 278
528 2 276 277 278
529 1 277 278 279
530 2 277 278 279
531 1 278 279 280
532 2 278 279 280
533 1 281 282 283
534 2 281 282 283
535 1 282 283 284
536 2 282 283 284
537 1 283 284 285
538 2 283 284 285
539 1 284 285 286
540 2 284 285 286
541 1 285 286 287
542 2 285 286 287
543 1 286 287 288
544 2 286 287 288
545 1 287 288 289
546 2 287 288 289
547 1 288 289 290
548 2 288 289 290
549 1 289 290 291
550 2 289 290 291
551 1 290 291 292
552 2 290 291 292
553 1 291 292 293
554 2 291 292 293
555 1 292 293 294
556 2 292 293 294
557 1 293 294 295
558 2 293 294 295
559 1 294 295 296
560 2 294 295 296
561 1 295 296 297
562 2 295 296 297
563 1 296 297 298
564 2 296 297 298
565 1 297 298 299
566 2 297 298 299
567 1 298 299 300
568 2 298 299 300
569 1 299 300 301
570 2 299 300 301
571 1 300 301 302
572 2 300 301 302
573 1 301 302 303
574 2 301 302 303
575 1 302 303 304
576 2 302 303 304
577 1 303 304 305
578 2 303 304 305
579 1 304 305 306
580 2 304 305 306
581 1 305 306 307
582 2 305 306 307
583 1 306 307 308
584 2 306 307 308
585 1 307 308 309
586 2 307 308 309
587 1 308 309 310
588 2 308 309 310
589 1 309 310 311
590 2 309 310 311
591 1 310 311 312
592 2 310 311 312
593 1 311 312 313
594 2 311 312 313
595 1 312 313 314
596 2 312 313 314
597 1 313 314 315
598 2 313 314 315
599 1 314 315 316
600 2 314 315 316
601 1 315 316 317
602 2 315 316 317
603 1 316 317 318
604 2 316 317 318
605 1 317 318 319
606 2 317 318 319
607 1 318 319 320
608 2 318 319 320
609 1 321 322 323
610 2 321 322 323
611 1 322 323 324
612 2 322 323 324
613 1 323 324 325
614 2 323 324 325
615 1 324 325 326
616 2 324 325 326
617 1 325 326 327
618 2 325 326 327
619 1 326 327 328
620 2 326 327 328
621 1 327 328 329
622 2 327 328 329
623 1 328 329 330
624 2 328 329 330
625 1 329 330 331
626 2 329 330 331
627 1 330 331 332
628 2 330 331 332
629 1 331 332 333
630 2 331 332 333
631 1 332 333 334
632 2 332 333 334
633 1 333 334 335
634 2 333 334 335
635 1 334 335 336
636 2 334 335 336
637 1 335 336 337
638 2 335 336 337
639 1 336 337 338
640 2 336 337 338
641 1 337 338 339
642 2 337 338 339
643 1 338 339 340
644 2 338 339 340
645 1 339 340 341
646 2 339 340 341
647 1 340 341 342
648 2 340 341 342
649 1 341 342 343
650 2 341 342 343
651 1 342 343 344
652 2 342 343 344
653 1 343 344 345
654 2 343 344 345
655 1 344 345 346
656 2 344 345 346
657 1 345 346 347
658 2 345 346 347
659 1 346 347 348
660 2 346 347 348
661 1 347 348 349
662 2 347 348 349
663 1 348 349 350
664 2 348 349 350
665 1 349 350 351
666 2 349 350 351
667 1 350 351 352
668 2 350 351 352
669 1 351 352 353
670 2 351 352 353
671 1 352 353 354
672 2 352 353 354
673 1 353 354 355
674 2 353 354 355
675 1 354 355 356
676 2 354 355 356
677 1 355 356 357
678 2 355 356 357
679 1 356 357 358
680 2 356 357 358
681 1 357 358 359
682 2 357 358 359
683 1 358 359 360
684 2 358 359 360
685 1 361 362 363
686 2 361 362 363
687 1 362 363 364
688 2 362 363 364
689 1 363 364 365
690 2 363 364 365
691 1 364 365 366
692 2 364 365 366
693 1 365 366 367
694 2 365 366 367
695 1 366 367 368
696 2 366 367 368
697 1 367 368 369
698 2 367 368 369
699 1 368 369 370
700 2 368 369 370
701 1 369 370 371
702 2 369 370 371
703 1 370 371 372
704 2 370 371 372
705 1 371 372 373
706 2 371 372 373
707 1 372 373 374
708 2 372 373 374
709 1 373 374 375
710 2 373 374 375
711 1 374 375 376
712 2 374 375 376
713 1 375 376 377
714 2 375 376 377
715 1 376 377 378
716 2 376 377 378
717 1 377 378 379
718 2 377 378 379
719 1 378 379 380
720 2 378 379 380
721 1 379 380 381
722 2 379 380 381
723 1 380 381 382
724 2 380 381 382
725 1 381 382 383
726 2 381 382 383
727 1 382 383 384
728 2 382 383 384
729 1 383 384 385
730 2 383 384 385
731 1 384 385 386
732 2 384 385 386
733 1 385 386 387
734 2 385 386 387
735 1 386 387 388
736 2 386 387 388
737 1 387 388 389
738 2 387 388 389
739 1 388 389 390
740 2 388 389 390
741 1 389 390 391
742 2 389 390 391
743 1 390 391 392
744 2 390 391 392
745 1 391 392 393
746 2 391 392 393
747 1 392 393 394
748 2 392 393 394
749 1 393 394 395
750 2 393 394 395
751 1 394 395 396
752 2 394 395 396
753 1 395 396 397
754 2 395 396 397
755 1 396 397 398
756 2 396 397 398
757 1 397 398 399
758 2 397 398 399
759 1 398 399 400
760 2 398 399 400
